001 001 005 011 029 042 045 019 018 026 029 023 029 066 071 085 078 064 006 006 005 006 007 003 003 001 000 000 001 003 000
002 001 003 011 034 052 089 047 044 047 052 022 073 105 080 066 066 022 014 019 007 008 012 006 004 002 001 001 001 004 001
001 002 003 007 017 045 094 092 061 062 085 052 054 092 077 026 033 011 025 023 021 017 027 017 006 004 001 001 002 004 004
001 001 001 004 008 026 048 058 060 055 075 071 066 024 019 006 007 016 032 053 066 034 035 034 007 006 002 001 004 006 004
001 003 000 001 006 025 034 037 039 066 129 096 092 006 003 005 006 034 054 061 094 064 033 040 012 006 002 001 004 006 005
002 010 002 002 004 010 022 025 021 085 158 111 069 006 000 002 004 061 087 062 083 140 058 030 015 004 002 002 005 006 005
007 013 015 036 019 008 011 021 011 033 062 146 032 007 000 000 003 056 072 048 075 054 058 017 015 004 001 002 005 004 006
010 022 032 061 036 009 006 004 004 014 029 035 010 003 000 000 004 052 077 039 050 061 029 013 013 006 000 -99 -99 003 006
006 012 022 030 064 004 001 004 002 006 008 002 005 002 000 000 005 052 129 060 058 064 031 008 010 005 000 000 001 001 003
006 014 016 005 018 002 001 001 002 004 001 000 001 -99 000 001 010 031 092 096 064 073 100 044 005 011 001 000 001 001 002
008 005 005 001 003 000 000 000 001 003 000 000 000 -99 -99 000 002 021 033 092 072 083 107 043 006 004 001 000 001 001 004
007 001 000 000 001 001 000 000 000 001 000 000 000 000 000 000 001 009 018 042 058 081 072 043 006 006 002 000 001 002 008
005 000 000 000 000 000 000 000 000 000 000 000 000 000 000 000 000 001 002 004 019 024 052 023 015 008 004 001 001 003 006
001 000 000 000 000 000 000 000 000 000 000 000 000 000 006 000 000 000 000 000 002 005 014 008 015 014 004 001 002 003 005
001 000 000 000 000 000 000 000 000 -99 -99 -99 000 000 003 002 000 000 000 000 000 001 011 004 015 015 003 001 000 001 001
000 000 000 000 000 000 000 000 000 -99 -99 -99 000 000 000 000 000 000 000 -99 000 000 001 002 009 009 002 001 000 000 000
000 000 000 000 000 000 000 000 000 -99 -99 -99 -99 000 000 000 000 000 -99 -99 -99 000 000 001 002 005 003 001 000 000 000
000 000 000 -99 -99 -99 000 000 000 -99 -99 -99 -99 000 000 000 000 000 -99 -99 -99 000 000 000 001 002 002 000 000 000 000
000 000 000 -99 -99 -99 -99 000 000 -99 -99 -99 -99 -99 000 -99 000 000 -99 -99 -99 000 000 000 001 002 000 000 000 000 -99
000 000 000 000 000 000 -99 000 000 -99 -99 -99 -99 -99 000 -99 000 -99 -99 -99 -99 000 000 000 -99 000 000 -99 -99 -99 -99
000 000 000 000 000 000 000 000 000 000 -99 -99 -99 -99 -99 000 000 -99 000 000 -99 000 000 -99 -99 -99 -99 -99 -99 -99 -99
000 000 000 000 000 000 000 000 000 000 -99 -99 -99 -99 -99 000 000 000 000 000 000 000 000 -99 -99 -99 -99 -99 -99 -99 -99
000 000 000 000 000 000 000 000 000 000 -99 -99 -99 -99 -99 000 000 000 000 000 000 000 000 -99 -99 -99 -99 -99 -99 -99 -99
000 000 000 000 000 000 000 000 000 000 -99 -99 -99 -99 -99 000 000 000 000 000 000 000 000 -99 -99 -99 -99 -99 -99 -99 000
000 000 000 000 000 -99 -99 000 000 000 000 -99 -99 -99 -99 000 000 000 000 000 000 000 000 -99 -99 -99 -99 -99 -99 -99 000
000 000 000 000 000 000 000 000 000 000 000 -99 -99 -99 -99 000 000 000 000 000 000 -99 -99 -99 -99 -99 -99 -99 -99 000 000
000 000 000 000 000 000 000 000 000 000 -99 -99 -99 -99 -99 -99 000 000 000 000 -99 000 -99 -99 -99 -99 -99 -99 -99 000 000
000 000 000 000 000 000 000 000 000 -99 -99 -99 -99 -99 -99 000 000 000 000 -99 -99 000 -99 -99 -99 -99 -99 -99 -99 -99 000
000 000 000 000 000 000 -99 000 000 000 -99 -99 -99 -99 -99 000 000 000 000 000 000 000 -99 -99 -99 -99 -99 -99 -99 -99 -99
000 000 000 000 000 000 000 000 000 000 -99 -99 -99 -99 000 000 000 000 000 000 000 000 -99 000 000 -99 -99 -99 -99 -99 -99
-99 000 000 000 000 -99 000 000 000 000 -99 -99 -99 000 000 000 000 000 000 000 -99 000 -99 000 000 -99 -99 -99 -99 -99 -99
000 000 000 000 000 000 000 000 000 -99 -99 -99 -99 000 000 -99 000 000 000 -99 000 000 000 000 000 000 -99 -99 -99 -99 -99
000 000 000 000 000 000 000 000 000 -99 -99 -99 -99 000 000 -99 000 000 000 -99 -99 -99 -99 000 000 000 -99 -99 -99 -99 000
000 000 000 000 000 000 000 -99 000 000 -99 -99 -99 -99 000 000 000 000 000 000 000 000 000 000 000 000 -99 000 000 000 000
000 000 000 000 000 000 000 000 000 000 000 -99 000 000 000 000 000 -99 000 000 000 -99 000 000 000 000 000 000 000 000 000
000 -99 000 000 000 000 000 000 000 000 -99 -99 000 000 000 000 000 -99 000 000 000 -99 -99 000 000 -99 000 000 000 000 000
000 -99 000 000 000 -99 000 000 000 000 -99 -99 000 000 000 000 000 000 000 000 000 -99 -99 -99 000 000 000 000 000 000 000
000 -99 -99 -99 -99 -99 -99 -99 000 000 -99 -99 000 000 000 000 000 000 000 000 000 -99 000 000 000 000 000 -99 -99 000 -99
-99 -99 -99 000 000 000 -99 -99 -99 000 -99 -99 000 000 000 000 000 000 000 000 000 -99 000 000 000 000 000 000 -99 000 -99
-99 000 000 000 000 -99 -99 -99 -99 -99 -99 000 000 000 000 000 000 000 -99 -99 000 -99 000 000 000 000 000 -99 -99 000 -99
000 000 000 000 000 -99 -99 -99 -99 -99 000 000 000 000 000 000 000 000 -99 000 000 -99 000 000 -99 -99 000 -99 -99 000 -99
000 000 -99 000 000 -99 -99 -99 -99 -99 000 000 000 000 000 000 000 000 000 000 000 -99 000 -99 -99 -99 -99 -99 -99 -99 -99
-99 -99 -99 -99 -99 -99 -99 -99 -99 000 000 000 000 000 000 000 000 000 000 000 -99 000 -99 -99 000 000 -99 -99 -99 -99 -99
-99 -99 -99 -99 -99 -99 -99 -99 -99 -99 000 000 000 000 000 000 000 000 000 000 000 -99 -99 -99 000 000 -99 -99 -99 -99 -99
-99 -99 -99 -99 000 -99 -99 -99 -99 -99 000 000 000 000 000 000 000 000 000 -99 -99 -99 -99 000 -99 -99 -99 -99 -99 -99 -99
-99 -99 -99 000 000 -99 -99 -99 -99 -99 000 000 000 000 000 000 000 000 000 000 -99 -99 -99 -99 -99 -99 -99 -99 -99 -99 -99
-99 -99 -99 -99 -99 -99 -99 -99 -99 -99 000 000 -99 000 000 000 -99 000 000 000 -99 -99 000 -99 -99 -99 -99 -99 -99 -99 -99
-99 -99 -99 -99 -99 -99 -99 -99 -99 -99 -99 -99 -99 -99 -99 -99 -99 000 000 -99 -99 000 000 -99 -99 -99 -99 -99 -99 -99 -99
-99 -99 -99 -99 -99 -99 -99 -99 -99 -99 -99 -99 -99 -99 -99 -99 -99 000 000 -99 000 000 000 -99 -99 -99 -99 000 -99 -99 -99
-99 -99 -99 -99 -99 -99 -99 -99 -99 -99 -99 -99 -99 -99 -99 -99 -99 000 000 -99 000 000 -99 -99 -99 -99 -99 000 -99 -99 -99
-99 -99 -99 -99 -99 -99 -99 -99 -99 -99 -99 -99 -99 -99 -99 -99 000 000 -99 -99 -99 -99 -99 -99 -99 -99 -99 -99 -99 -99 -99
-99 -99 -99 -99 -99 -99 -99 -99 -99 -99 -99 -99 -99 -99 -99 -99 -99 000 -99 -99 -99 -99 -99 -99 -99 -99 -99 -99 -99 -99 -99
-99 -99 -99 -99 -99 -99 -99 -99 -99 -99 -99 -99 -99 -99 -99 -99 -99 -99 -99 -99 -99 -99 -99 -99 -99 -99 -99 -99 -99 -99 -99
-99 -99 -99 -99 -99 -99 -99 -99 -99 -99 -99 -99 -99 -99 -99 -99 -99 -99 -99 -99 -99 -99 -99 -99 -99 -99 -99 -99 -99 -99 -99
-99 -99 -99 -99 -99 -99 -99 -99 -99 -99 -99 -99 -99 -99 -99 -99 -99 -99 -99 -99 -99 -99 -99 -99 -99 -99 -99 -99 -99 -99 -99
